p cnf 15 34
15 -14 -6 0
15 12 10 0
15 -12 7 0
-15 11 -3 0
-15 11 1 0
-15 10 -9 0
-15 10 7 0
-15 -4 -1 0
-14 12 -7 0
14 -7 6 0
14 5 -2 0
14 -5 -1 0
-14 4 -3 0
13 -11 8 0
-13 -10 -4 0
13 -10 -3 0
-13 -9 8 0
-13 8 6 0
-13 5 4 0
-12 -9 -8 0
11 10 -9 0
-11 10 6 0
11 -7 1 0
10 6 -2 0
10 -6 -2 0
-10 -6 -1 0
-9 8 -6 0
-9 -7 -1 0
8 -3 -2 0
7 -5 -2 0
7 -4 -1 0
-6 -5 1 0
-6 5 -1 0
-6 -3 2 0
